presolving:
(round 1, fast)       79 del vars, 560 del conss, 0 add conss, 279 chg bounds, 0 chg sides, 0 chg coeffs, 0 upgd conss, 0 impls, 0 clqs
(round 2, fast)       499 del vars, 560 del conss, 0 add conss, 279 chg bounds, 0 chg sides, 0 chg coeffs, 0 upgd conss, 0 impls, 0 clqs
   (0.1s) running MILP presolver
   (0.1s) MILP presolver found nothing
(round 3, exhaustive) 499 del vars, 560 del conss, 0 add conss, 279 chg bounds, 0 chg sides, 0 chg coeffs, 3000 upgd conss, 0 impls, 0 clqs
   (0.2s) probing: 51/140 (36.4%) - 0 fixings, 0 aggregations, 0 implications, 0 bound changes
   (0.2s) probing aborted: 50/50 successive totally useless probings
   (0.4s) symmetry computation started: requiring (bin +, int -, cont +), (fixed: bin -, int +, cont -)
   (0.4s) no symmetry present
presolving (4 rounds: 4 fast, 2 medium, 2 exhaustive):
 4170 deleted vars, 700 deleted constraints, 0 added constraints, 279 tightened bounds, 0 added holes, 0 changed sides, 0 changed coefficients
 0 implications, 0 cliques
presolved problem has 140 variables (140 bin, 0 int, 0 impl, 0 cont) and 3000 constraints
   3000 constraints of type <logicor>
Presolving Time: 0.44

 time | node  | left  |LP iter|LP it/n|mem/heur|mdpt |vars |cons |rows |cuts |sepa|confs|strbr|  dualbound   | primalbound  |  gap   | compl. 
t 0.5s|     1 |     0 |     0 |     - | trivial|   0 | 140 |3000 |   0 |   0 |  0 |   0 |   0 |-1.641309e+06 |-1.478736e+06 |  10.99%| unknown
p 0.5s|     1 |     0 |     0 |     - |   locks|   0 | 140 |3000 |3000 |   0 |  0 |   0 |   0 |-1.641309e+06 |-1.611479e+06 |   1.85%| unknown
  0.6s|     1 |     0 |   384 |     - |    99M |   0 | 140 |3000 |3000 |   0 |  0 |   0 |   0 |-1.635100e+06 |-1.611479e+06 |   1.47%| unknown
r 0.6s|     1 |     0 |   384 |     - |rounding|   0 | 140 |3000 |3000 |   0 |  0 |   0 |   0 |-1.635100e+06 |-1.611591e+06 |   1.46%| unknown
r 0.6s|     1 |     0 |   384 |     - |shifting|   0 | 140 |3000 |3000 |   0 |  0 |   0 |   0 |-1.635100e+06 |-1.611748e+06 |   1.45%| unknown
i 0.6s|     1 |     0 |   384 |     - |  oneopt|   0 | 140 |3000 |3000 |   0 |  0 |   0 |   0 |-1.635100e+06 |-1.630478e+06 |   0.28%| unknown
  0.6s|     1 |     0 |   428 |     - |   100M |   0 | 140 |3000 |3001 |   1 |  1 |   0 |   0 |-1.635077e+06 |-1.630478e+06 |   0.28%| unknown
  0.7s|     1 |     0 |   454 |     - |   102M |   0 | 140 |3000 |3002 |   2 |  2 |   0 |   0 |-1.635062e+06 |-1.630478e+06 |   0.28%| unknown
  0.7s|     1 |     0 |   502 |     - |   103M |   0 | 140 |3000 |3003 |   3 |  3 |   0 |   0 |-1.635033e+06 |-1.630478e+06 |   0.28%| unknown
  0.7s|     1 |     0 |   517 |     - |   104M |   0 | 140 |3000 |3004 |   4 |  4 |   0 |   0 |-1.635024e+06 |-1.630478e+06 |   0.28%| unknown
  0.8s|     1 |     0 |   549 |     - |   105M |   0 | 140 |3000 |3005 |   5 |  5 |   0 |   0 |-1.635018e+06 |-1.630478e+06 |   0.28%| unknown
  0.8s|     1 |     0 |   576 |     - |   106M |   0 | 140 |3000 |3006 |   6 |  6 |   0 |   0 |-1.635015e+06 |-1.630478e+06 |   0.28%| unknown
  0.8s|     1 |     0 |   630 |     - |   107M |   0 | 140 |3000 |3007 |   7 |  7 |   0 |   0 |-1.635009e+06 |-1.630478e+06 |   0.28%| unknown
  0.9s|     1 |     0 |   650 |     - |   108M |   0 | 140 |3000 |3008 |   8 |  8 |   0 |   0 |-1.635009e+06 |-1.630478e+06 |   0.28%| unknown
  0.9s|     1 |     0 |   689 |     - |   108M |   0 | 140 |3000 |3009 |   9 |  9 |   0 |   0 |-1.635005e+06 |-1.630478e+06 |   0.28%| unknown
 time | node  | left  |LP iter|LP it/n|mem/heur|mdpt |vars |cons |rows |cuts |sepa|confs|strbr|  dualbound   | primalbound  |  gap   | compl. 
  0.9s|     1 |     0 |   700 |     - |   111M |   0 | 140 |3000 |3010 |  10 | 10 |   0 |   0 |-1.635004e+06 |-1.630478e+06 |   0.28%| unknown
  1.0s|     1 |     0 |   734 |     - |   111M |   0 | 140 |3000 |3011 |  11 | 11 |   0 |   0 |-1.635002e+06 |-1.630478e+06 |   0.28%| unknown
  1.0s|     1 |     0 |   768 |     - |   112M |   0 | 140 |3000 |3012 |  12 | 12 |   0 |   0 |-1.635000e+06 |-1.630478e+06 |   0.28%| unknown
  1.0s|     1 |     0 |   787 |     - |   112M |   0 | 140 |3000 |3013 |  13 | 13 |   0 |   0 |-1.634999e+06 |-1.630478e+06 |   0.28%| unknown
  1.0s|     1 |     0 |   824 |     - |   112M |   0 | 140 |3000 |3014 |  14 | 14 |   0 |   0 |-1.634997e+06 |-1.630478e+06 |   0.28%| unknown
  1.0s|     1 |     0 |   848 |     - |   112M |   0 | 140 |3000 |3015 |  15 | 15 |   0 |   0 |-1.634996e+06 |-1.630478e+06 |   0.28%| unknown
  1.0s|     1 |     0 |   879 |     - |   113M |   0 | 140 |3000 |3016 |  16 | 16 |   0 |   0 |-1.634995e+06 |-1.630478e+06 |   0.28%| unknown
  1.1s|     1 |     0 |   904 |     - |   113M |   0 | 140 |3000 |3017 |  17 | 17 |   0 |   0 |-1.634995e+06 |-1.630478e+06 |   0.28%| unknown
  1.1s|     1 |     0 |   928 |     - |   113M |   0 | 140 |3000 |3018 |  18 | 18 |   0 |   0 |-1.634995e+06 |-1.630478e+06 |   0.28%| unknown
  1.1s|     1 |     0 |   968 |     - |   114M |   0 | 140 |3000 |3019 |  19 | 19 |   0 |   0 |-1.634994e+06 |-1.630478e+06 |   0.28%| unknown
  1.1s|     1 |     0 |   999 |     - |   114M |   0 | 140 |3000 |3020 |  20 | 20 |   0 |   0 |-1.634994e+06 |-1.630478e+06 |   0.28%| unknown
  1.1s|     1 |     0 |  1015 |     - |   114M |   0 | 140 |3000 |3021 |  21 | 21 |   0 |   0 |-1.634993e+06 |-1.630478e+06 |   0.28%| unknown
  1.1s|     1 |     0 |  1028 |     - |   114M |   0 | 140 |3000 |3022 |  22 | 22 |   0 |   0 |-1.634993e+06 |-1.630478e+06 |   0.28%| unknown
  1.2s|     1 |     0 |  1049 |     - |   114M |   0 | 140 |3000 |3021 |  23 | 23 |   0 |   0 |-1.634991e+06 |-1.630478e+06 |   0.28%| unknown
  1.2s|     1 |     0 |  1063 |     - |   114M |   0 | 140 |3000 |3022 |  24 | 24 |   0 |   0 |-1.634990e+06 |-1.630478e+06 |   0.28%| unknown
 time | node  | left  |LP iter|LP it/n|mem/heur|mdpt |vars |cons |rows |cuts |sepa|confs|strbr|  dualbound   | primalbound  |  gap   | compl. 
  1.2s|     1 |     0 |  1083 |     - |   114M |   0 | 140 |3000 |3023 |  25 | 25 |   0 |   0 |-1.634989e+06 |-1.630478e+06 |   0.28%| unknown
  1.2s|     1 |     0 |  1093 |     - |   114M |   0 | 140 |3000 |3024 |  26 | 26 |   0 |   0 |-1.634988e+06 |-1.630478e+06 |   0.28%| unknown
  1.2s|     1 |     0 |  1098 |     - |   114M |   0 | 140 |3000 |3025 |  27 | 27 |   0 |   0 |-1.634988e+06 |-1.630478e+06 |   0.28%| unknown
  1.2s|     1 |     0 |  1104 |     - |   114M |   0 | 140 |3000 |3026 |  28 | 28 |   0 |   0 |-1.634988e+06 |-1.630478e+06 |   0.28%| unknown
d 1.5s|     1 |     0 |  1815 |     - |farkasdi|   0 | 140 |3000 |3026 |   0 | 30 |   0 |   0 |-1.634988e+06 |-1.630610e+06 |   0.27%| unknown
d 1.5s|     1 |     0 |  1837 |     - |farkasdi|   0 | 140 |3000 |3026 |   0 | 30 |   0 |   0 |-1.634988e+06 |-1.632346e+06 |   0.16%| unknown
L 5.7s|     1 |     0 |  1837 |     - |    rens|   0 | 140 |3000 |3026 |  28 | 30 |   0 |   0 |-1.634988e+06 |-1.632910e+06 |   0.13%| unknown
  5.7s|     1 |     0 |  1837 |     - |   114M |   0 | 140 |3000 |3026 |  28 | 30 |   0 |   0 |-1.634988e+06 |-1.632910e+06 |   0.13%| unknown
  5.7s|     1 |     0 |  1843 |     - |   114M |   0 | 140 |3000 |3027 |  29 | 31 |   0 |   0 |-1.634988e+06 |-1.632910e+06 |   0.13%| unknown
  5.7s|     1 |     0 |  1848 |     - |   114M |   0 | 140 |3000 |3026 |  30 | 32 |   0 |   0 |-1.634988e+06 |-1.632910e+06 |   0.13%| unknown
  6.4s|     1 |     2 |  1848 |     - |   114M |   0 | 140 |3000 |3026 |  30 | 32 |   0 |  20 |-1.634710e+06 |-1.632910e+06 |   0.11%| unknown
 12.2s|   100 |    27 |  9152 |  81.2 |   121M |  13 | 140 |3112 |3022 |  63 |  1 | 115 | 341 |-1.634433e+06 |-1.632910e+06 |   0.09%|  21.58%
 14.8s|   200 |    37 | 15172 |  70.6 |   123M |  15 | 140 |3199 |3025 | 108 |  0 | 209 | 469 |-1.634237e+06 |-1.632910e+06 |   0.08%|  27.44%
 17.4s|   300 |    55 | 20256 |  64.0 |   123M |  15 | 140 |3243 |3020 | 144 |  0 | 253 | 546 |-1.634160e+06 |-1.632910e+06 |   0.08%|  33.70%
 19.3s|   400 |    71 | 25868 |  62.0 |   123M |  16 | 140 |3276 |3024 | 192 |  0 | 286 | 595 |-1.634075e+06 |-1.632910e+06 |   0.07%|  36.91%
 time | node  | left  |LP iter|LP it/n|mem/heur|mdpt |vars |cons |rows |cuts |sepa|confs|strbr|  dualbound   | primalbound  |  gap   | compl. 
 20.8s|   500 |    89 | 32354 |  62.6 |   123M |  17 | 140 |3308 |3021 | 204 |  1 | 320 | 627 |-1.633964e+06 |-1.632910e+06 |   0.06%|  44.26%
 23.1s|   600 |   107 | 40079 |  65.0 |   125M |  18 | 140 |3349 |3020 | 265 |  0 | 362 | 670 |-1.633765e+06 |-1.632910e+06 |   0.05%|  51.74%
 24.6s|   700 |   111 | 46299 |  64.6 |   125M |  18 | 140 |3379 |3025 | 295 |  2 | 397 | 698 |-1.633693e+06 |-1.632910e+06 |   0.05%|  55.05%
 26.3s|   800 |   131 | 53350 |  65.4 |   125M |  18 | 140 |3412 |3025 | 328 |  0 | 435 | 726 |-1.633554e+06 |-1.632910e+06 |   0.04%|  61.54%
 27.8s|   900 |   143 | 59643 |  65.1 |   125M |  18 | 140 |3442 |3025 | 370 |  0 | 465 | 747 |-1.633474e+06 |-1.632910e+06 |   0.03%|  67.05%
 28.8s|  1000 |   141 | 64190 |  63.1 |   125M |  18 | 140 |3457 |3026 | 394 |  1 | 483 | 760 |-1.633382e+06 |-1.632910e+06 |   0.03%|  72.31%
 29.6s|  1100 |   113 | 67836 |  60.7 |   126M |  18 | 140 |3472 |3024 | 414 |  0 | 502 | 773 |-1.633326e+06 |-1.632910e+06 |   0.03%|  78.46%
 30.4s|  1200 |    68 | 70995 |  58.3 |   126M |  20 | 140 |3472 |3044 | 436 |  0 | 509 | 780 |-1.633287e+06 |-1.632910e+06 |   0.02%|  82.24%
 30.8s|  1300 |     7 | 73846 |  56.0 |   126M |  20 | 140 |3471 |3038 | 437 |  0 | 516 | 788 |-1.633141e+06 |-1.632910e+06 |   0.01%|  95.23%

SCIP Status        : problem is solved [optimal solution found]
Solving Time (sec) : 30.89
Solving Nodes      : 1309
Primal Bound       : -1.63290964000000e+06 (537 solutions)
Dual Bound         : -1.63290964000000e+06
Gap                : 0.00 %
Solve Status: optimal
Solve Time: 30.89 seconds
